
Gurobi 9.5.0 (linux64) logging started Fri Dec 15 10:38:50 2023

Set parameter LogFile to value "/lustre1/scratch/348/vsc34888/JointResearch/05.Models/06.Benchmarking/K.Investments_per_hour/RTS24_mod1_ByStages_nc10/openStarNet_RTS24_mod1_ByStages_nc10.log"
Set parameter Method to value 2
Set parameter MIPFocus to value 1
Set parameter Presolve to value 2
Set parameter RINS to value 100
Set parameter MIPGap to value 0.01
Set parameter Threads to value 36
Set parameter TimeLimit to value 259200
Set parameter IterationLimit to value 760000000
Gurobi Optimizer version 9.5.0 build v9.5.0rc5 (linux64)
Thread count: 36 physical cores, 36 logical processors, using up to 36 threads
Optimize a model with 3908 rows, 2636 columns and 10582 nonzeros
Model fingerprint: 0x3370db28
Variable types: 2615 continuous, 21 integer (21 binary)
Coefficient statistics:
  Matrix range     [1e-03, 7e+03]
  Objective range  [1e+00, 1e+00]
  Bounds range     [5e-05, 2e+00]
  RHS range        [5e-05, 2e+00]
Presolve removed 2328 rows and 1326 columns
Presolve time: 0.02s
Presolved: 1580 rows, 1310 columns, 5694 nonzeros
Variable types: 1289 continuous, 21 integer (21 binary)
Found heuristic solution: objective 87.2676446
Root relaxation presolve removed 4 rows and 4 columns
Root relaxation presolved: 1576 rows, 1306 columns, 5686 nonzeros

Root barrier log...

Ordering time: 0.02s

Barrier statistics:
 AA' NZ     : 2.814e+04
 Factor NZ  : 1.401e+05 (roughly 2 MB of memory)
 Factor Ops : 1.934e+07 (less than 1 second per iteration)
 Threads    : 36

                  Objective                Residual
Iter       Primal          Dual         Primal    Dual     Compl     Time
   0   1.83582061e+06 -1.03257488e+08  1.65e+01 1.50e+03  1.88e+05     0s
   1   4.77906967e+05 -4.82043421e+07  4.32e+00 1.29e-10  4.49e+04     0s
   2   5.68520327e+04 -2.37898736e+07  5.51e-01 5.00e-09  9.38e+03     0s
   3   8.18745329e+03 -3.17162039e+06  4.42e-02 5.41e-11  9.45e+02     0s
   4   4.63419625e+03 -1.10601905e+05  1.09e-03 3.27e-11  3.14e+01     0s
   5   2.49153175e+03 -1.81423160e+04  4.35e-13 2.18e-11  5.58e+00     0s
   6   6.29428489e+02 -4.01359337e+03  3.65e-13 3.64e-12  1.26e+00     0s
   7   2.00747785e+02 -1.11052289e+03  1.73e-13 7.28e-12  3.55e-01     0s
   8   1.40125903e+02 -2.60716331e+02  7.77e-14 3.64e-12  1.08e-01     0s
   9   8.57962984e+01 -8.13814240e+01  1.90e-13 3.64e-12  4.52e-02     0s
  10   5.86720093e+01  4.33017557e+00  4.55e-13 3.64e-12  1.47e-02     0s
  11   5.05349952e+01  2.96362952e+01  2.92e-13 3.64e-12  5.65e-03     0s
  12   4.38959374e+01  3.69892724e+01  4.79e-13 1.46e-11  1.87e-03     0s
  13   4.12097524e+01  3.83492889e+01  1.27e-12 3.64e-12  7.74e-04     0s
  14   4.05808064e+01  3.93819068e+01  8.60e-13 3.64e-12  3.24e-04     0s
  15   4.03572329e+01  3.98681944e+01  2.09e-12 1.46e-11  1.32e-04     0s
  16   4.01448616e+01  3.99853363e+01  4.29e-12 1.46e-11  4.32e-05     0s
  17   4.00848146e+01  4.00164908e+01  8.30e-12 3.64e-12  1.85e-05     0s
  18   4.00555677e+01  4.00513231e+01  9.71e-12 1.46e-11  1.15e-06     0s
  19   4.00534310e+01  4.00528291e+01  6.80e-12 1.46e-11  1.63e-07     0s
  20   4.00531242e+01  4.00531124e+01  4.36e-12 7.28e-12  3.19e-09     0s
  21   4.00531223e+01  4.00531223e+01  5.24e-12 3.64e-12  1.02e-11     0s

Barrier solved model in 21 iterations and 0.35 seconds (0.06 work units)
Optimal objective 4.00531223e+01


Root relaxation: objective 4.005312e+01, 188 iterations, 0.23 seconds (0.04 work units)

    Nodes    |    Current Node    |     Objective Bounds      |     Work
 Expl Unexpl |  Obj  Depth IntInf | Incumbent    BestBd   Gap | It/Node Time

     0     0   40.05312    0   14   87.26764   40.05312  54.1%     -    0s
     0     0   40.94507    0   11   87.26764   40.94507  53.1%     -    0s
H    0     0                      84.1060771   40.94507  51.3%     -    0s
H    0     0                      75.5586818   40.95601  45.8%     -    0s
     0     0   41.54944    0   13   75.55868   41.54944  45.0%     -    0s
     0     0   42.09340    0   11   75.55868   42.09340  44.3%     -    0s
H    0     0                      68.2526392   42.09340  38.3%     -    0s
     0     0   42.09340    0   10   68.25264   42.09340  38.3%     -    0s
     0     0   42.09340    0    9   68.25264   42.09340  38.3%     -    0s
     0     0   42.79535    0   11   68.25264   42.79535  37.3%     -    0s
     0     0   43.62640    0   10   68.25264   43.62640  36.1%     -    0s
     0     0   43.67668    0   10   68.25264   43.67668  36.0%     -    0s
H    0     0                      67.1530889   43.87138  34.7%     -    0s
     0     0   43.87138    0   10   67.15309   43.87138  34.7%     -    0s
H    0     0                      59.9903006   44.43568  25.9%     -    0s
     0     0   44.43568    0   13   59.99030   44.43568  25.9%     -    0s
     0     0   44.45133    0   10   59.99030   44.45133  25.9%     -    0s
     0     0   44.67774    0    9   59.99030   44.67774  25.5%     -    0s
H    0     0                      58.5621871   44.67774  23.7%     -    1s
     0     2   44.67774    0    9   58.56219   44.67774  23.7%     -    1s
H    6     8                      58.3703003   44.67774  23.5%  67.8    1s
   900   238   56.13107    9   10   58.37030   47.32539  18.9%  44.8    5s

Cutting planes:
  Gomory: 1
  Implied bound: 11
  MIR: 72
  Relax-and-lift: 10

Explored 2553 nodes (87162 simplex iterations) in 6.48 seconds (7.05 work units)
Thread count was 36 (of 36 available processors)

Solution count 8: 58.3703 58.5622 59.9903 ... 87.2676

Optimal solution found (tolerance 1.00e-02)
Best objective 5.837030032586e+01, best bound 5.837030032586e+01, gap 0.0000%

Gurobi 9.5.0 (linux64) logging started Fri Dec 15 10:38:57 2023

Set parameter LogFile to value "/lustre1/scratch/348/vsc34888/JointResearch/05.Models/06.Benchmarking/K.Investments_per_hour/RTS24_mod1_ByStages_nc10/openStarNet_RTS24_mod1_ByStages_nc10.log"
Set parameter Method to value 2
Set parameter MIPFocus to value 1
Set parameter Presolve to value 2
Set parameter RINS to value 100
Set parameter MIPGap to value 0.01
Set parameter Threads to value 36
Set parameter TimeLimit to value 259200
Set parameter IterationLimit to value 760000000
No parameters matching 'relax_integrality' found
Gurobi Optimizer version 9.5.0 build v9.5.0rc5 (linux64)
Thread count: 36 physical cores, 36 logical processors, using up to 36 threads
Optimize a model with 3908 rows, 2615 columns and 9637 nonzeros
Model fingerprint: 0x18a0cbe3
Coefficient statistics:
  Matrix range     [1e-03, 7e+03]
  Objective range  [1e+00, 1e+00]
  Bounds range     [5e-05, 2e+00]
  RHS range        [5e-05, 2e+01]
Presolve removed 3268 rows and 1477 columns
Presolve time: 0.01s
Presolved: 640 rows, 1158 columns, 2751 nonzeros

Ordering time: 0.00s

Barrier statistics:
 AA' NZ     : 1.396e+03
 Factor NZ  : 4.980e+03 (roughly 1 MB of memory)
 Factor Ops : 5.892e+04 (less than 1 second per iteration)
 Threads    : 1

                  Objective                Residual
Iter       Primal          Dual         Primal    Dual     Compl     Time
   0   2.50412147e+06 -4.83681731e+07  1.40e+01 4.65e+03  3.82e+05     0s
   1   1.55739028e+05 -3.88512854e+07  8.61e-01 1.71e-10  3.92e+04     0s
   2   4.64418056e+04 -1.29552004e+07  2.33e-01 2.82e-10  9.49e+03     0s
   3   1.98000371e+04 -3.05902527e+06  1.83e-02 1.46e-10  1.68e+03     0s
   4   1.44958804e+04 -1.23289349e+05  1.06e-03 9.81e-11  7.18e+01     0s
   5   4.17844687e+03 -2.42726767e+04  8.80e-06 2.60e-09  1.47e+01     0s
   6   7.96611413e+02 -6.54896283e+03  3.72e-07 7.19e-10  3.80e+00     0s
   7   2.81510201e+02 -9.42835879e+02  1.90e-09 9.35e-11  6.33e-01     0s
   8   1.99171057e+02 -4.24553547e+02  8.19e-10 3.89e-11  3.23e-01     0s
   9   1.33568721e+02 -1.65274760e+02  2.99e-10 2.91e-11  1.55e-01     0s
  10   7.97701779e+01  6.85707029e+00  5.24e-11 7.28e-12  3.77e-02     0s
  11   6.47116681e+01  4.18971662e+01  1.16e-11 3.64e-12  1.18e-02     0s
  12   6.00532609e+01  5.39734297e+01  2.42e-12 2.91e-11  3.14e-03     0s
  13   5.88960693e+01  5.71265429e+01  3.18e-12 5.82e-11  9.15e-04     0s
  14   5.84182498e+01  5.80910984e+01  2.85e-12 7.28e-12  1.69e-04     0s
  15   5.83818677e+01  5.82893387e+01  1.17e-12 2.91e-11  4.78e-05     0s
  16   5.83712325e+01  5.83527743e+01  2.70e-12 7.28e-12  9.54e-06     0s
  17   5.83704445e+01  5.83692901e+01  1.06e-12 2.91e-11  5.97e-07     0s
  18   5.83703273e+01  5.83702546e+01  2.37e-12 7.28e-12  3.76e-08     0s
  19   5.83703004e+01  5.83703002e+01  8.33e-12 7.28e-12  8.36e-11     0s
  20   5.83703003e+01  5.83703003e+01  7.11e-13 5.82e-11  1.21e-16     0s

Barrier solved model in 20 iterations and 0.02 seconds (0.01 work units)
Optimal objective 5.83703003e+01

Crossover log...

     127 DPushes remaining with DInf 0.0000000e+00                 0s
       0 DPushes remaining with DInf 0.0000000e+00                 0s

      37 PPushes remaining with PInf 0.0000000e+00                 0s
       0 PPushes remaining with PInf 0.0000000e+00                 0s

  Push phase complete: Pinf 0.0000000e+00, Dinf 4.6366494e-13      0s

Iteration    Objective       Primal Inf.    Dual Inf.      Time
      41    5.8370300e+01   0.000000e+00   0.000000e+00      0s

Use crossover to convert LP symmetric solution to basic solution...
Crossover log...

       0 DPushes remaining with DInf 0.0000000e+00                 0s

      20 PPushes remaining with PInf 0.0000000e+00                 0s
       0 PPushes remaining with PInf 0.0000000e+00                 0s

  Push phase complete: Pinf 0.0000000e+00, Dinf 5.5260575e-13      0s

Iteration    Objective       Primal Inf.    Dual Inf.      Time
      65    5.8370300e+01   0.000000e+00   0.000000e+00      0s

Solved in 65 iterations and 0.02 seconds (0.01 work units)
Optimal objective  5.837030033e+01
